
Log for '/tmp/c0f89d30955146b9aa86af247dc251b8-pulp.lp' Clone_1 (V22.1.1.0) Fri Sep  5 15:37:29 2025

Tried aggregator 1 time.
Presolve time = 0.01 sec. (3.15 ticks)

Dual simplex solved model.


Log for '/tmp/38b20746b6a14c2aaac7ca2bd33d6b8a-pulp.lp' Clone_1 (V22.1.1.0) Fri Sep  5 15:37:35 2025

Tried aggregator 1 time.
LP Presolve eliminated 7716 rows and 4393 columns.
All rows and columns eliminated.
Presolve time = 0.00 sec. (3.39 ticks)

Log for '/tmp/38b20746b6a14c2aaac7ca2bd33d6b8a-pulp.lp' Clone_1 (V22.1.1.0) Fri Sep  5 15:37:35 2025

Using steepest-edge.
Parallel mode: deterministic, using up to 10 threads for concurrent optimization:
 * Starting dual Simplex on 1 thread...
 * Starting primal Simplex on 1 thread...

Total time on 10 threads = 0.01 sec. (198.95 ticks)

Dual simplex solved model.


Log for '/tmp/c0619702a5f74d89b206fb0f1d1622f7-pulp.lp' Clone_1 (V22.1.1.0) Fri Sep  5 15:37:52 2025

Tried aggregator 1 time.
LP Presolve eliminated 7719 rows and 4397 columns.
All rows and columns eliminated.
Presolve time = 0.01 sec. (3.39 ticks)
Parallel mode: deterministic, using up to 10 threads for concurrent optimization:
 * Starting dual Simplex on 1 thread...
 * Starting primal Simplex on 1 thread...

Log for '/tmp/c0619702a5f74d89b206fb0f1d1622f7-pulp.lp' Clone_1 (V22.1.1.0) Fri Sep  5 15:37:52 2025

Using steepest-edge.

Total time on 10 threads = 0.03 sec. (198.95 ticks)

Dual simplex solved model.


Log for '/tmp/277c5247fefa441eb684e07c6f971ac6-pulp.lp' Clone_1 (V22.1.1.0) Fri Sep  5 15:38:19 2025

Tried aggregator 1 time.
LP Presolve eliminated 7719 rows and 4397 columns.
All rows and columns eliminated.
Presolve time = 0.00 sec. (3.39 ticks)

Log for '/tmp/277c5247fefa441eb684e07c6f971ac6-pulp.lp' Clone_1 (V22.1.1.0) Fri Sep  5 15:38:19 2025

Using steepest-edge.
Parallel mode: deterministic, using up to 10 threads for concurrent optimization:
 * Starting dual Simplex on 1 thread...
 * Starting primal Simplex on 1 thread...

Total time on 10 threads = 0.01 sec. (198.95 ticks)

Dual simplex solved model.


Log for '/tmp/e337c7aedaad40f099da3d62b121b0fe-pulp.lp' Clone_1 (V22.1.1.0) Sat Sep  6 12:42:40 2025

Tried aggregator 1 time.
LP Presolve eliminated 7728 rows and 4398 columns.
All rows and columns eliminated.
Presolve time = 0.01 sec. (3.50 ticks)
Parallel mode: deterministic, using up to 10 threads for concurrent optimization:
 * Starting dual Simplex on 1 thread...
 * Starting primal Simplex on 1 thread...

Log for '/tmp/e337c7aedaad40f099da3d62b121b0fe-pulp.lp' Clone_1 (V22.1.1.0) Sat Sep  6 12:42:40 2025

Using steepest-edge.

Total time on 10 threads = 0.04 sec. (199.07 ticks)

Dual simplex solved model.


Log for '/tmp/ec052fa312be4d068fc2d9700e9e5cbd-pulp.lp' Clone_1 (V22.1.1.0) Sat Sep  6 12:43:03 2025


Log for '/tmp/ec052fa312be4d068fc2d9700e9e5cbd-pulp.lp' Clone_1 (V22.1.1.0) Sat Sep  6 12:43:09 2025

Tried aggregator 1 time.
LP Presolve eliminated 23245 rows and 11020 columns.
Aggregator did 6 substitutions.
All rows and columns eliminated.
Presolve time = 0.03 sec. (10.30 ticks)
Parallel mode: deterministic, using up to 10 threads for concurrent optimization:
 * Starting dual Simplex on 1 thread...
 * Starting primal Simplex on 1 thread...

Log for '/tmp/ec052fa312be4d068fc2d9700e9e5cbd-pulp.lp' Clone_1 (V22.1.1.0) Sat Sep  6 12:43:09 2025

Using steepest-edge.

Total time on 10 threads = 0.06 sec. (215.26 ticks)

Dual simplex solved model.


Log for '/tmp/9e32b7786d4b4eefa0ef96203a0e38ac-pulp.lp' Clone_1 (V22.1.1.0) Sat Sep  6 12:43:41 2025


Log for '/tmp/9e32b7786d4b4eefa0ef96203a0e38ac-pulp.lp' Clone_1 (V22.1.1.0) Sat Sep  6 12:50:48 2025

Tried aggregator 1 time.
LP Presolve eliminated 47631 rows and 20600 columns.
Aggregator did 11 substitutions.
All rows and columns eliminated.
Presolve time = 0.03 sec. (20.60 ticks)
Parallel mode: deterministic, using up to 10 threads for concurrent optimization:
 * Starting dual Simplex on 1 thread...
 * Starting primal Simplex on 1 thread...

Log for '/tmp/9e32b7786d4b4eefa0ef96203a0e38ac-pulp.lp' Clone_1 (V22.1.1.0) Sat Sep  6 12:50:48 2025

Using steepest-edge.

Total time on 10 threads = 0.11 sec. (242.65 ticks)

Dual simplex solved model.


Log for '/tmp/3934b21d246d4862945e33fdec45b5bb-pulp.lp' Clone_1 (V22.1.1.0) Sat Sep  6 12:51:18 2025

Tried aggregator 1 time.
LP Presolve eliminated 14001 rows and 7980 columns.
All rows and columns eliminated.
Presolve time = 0.01 sec. (6.39 ticks)

Log for '/tmp/3934b21d246d4862945e33fdec45b5bb-pulp.lp' Clone_1 (V22.1.1.0) Sat Sep  6 12:51:18 2025

Using steepest-edge.
Parallel mode: deterministic, using up to 10 threads for concurrent optimization:
 * Starting dual Simplex on 1 thread...
 * Starting primal Simplex on 1 thread...

Total time on 10 threads = 0.03 sec. (205.91 ticks)

Dual simplex solved model.


Log for '/tmp/a9c816033e1240e8a9d2e543114dc712-pulp.lp' Clone_1 (V22.1.1.0) Sat Sep  6 12:51:35 2025

Tried aggregator 1 time.
LP Presolve eliminated 26031 rows and 13310 columns.
Aggregator did 5 substitutions.
All rows and columns eliminated.
Presolve time = 0.01 sec. (11.86 ticks)
Parallel mode: deterministic, using up to 10 threads for concurrent optimization:
 * Starting dual Simplex on 1 thread...
 * Starting primal Simplex on 1 thread...

Log for '/tmp/a9c816033e1240e8a9d2e543114dc712-pulp.lp' Clone_1 (V22.1.1.0) Sat Sep  6 12:51:35 2025

Using steepest-edge.

Total time on 10 threads = 0.04 sec. (218.78 ticks)

Dual simplex solved model.


Log for '/tmp/da5a1763d2594192950f6fcd5109679c-pulp.lp' Clone_1 (V22.1.1.0) Sat Sep  6 12:52:10 2025


Log for '/tmp/da5a1763d2594192950f6fcd5109679c-pulp.lp' Clone_1 (V22.1.1.0) Sat Sep  6 12:52:18 2025

Tried aggregator 1 time.
LP Presolve eliminated 42076 rows and 19980 columns.
Aggregator did 6 substitutions.
All rows and columns eliminated.
Presolve time = 0.02 sec. (18.80 ticks)

Log for '/tmp/da5a1763d2594192950f6fcd5109679c-pulp.lp' Clone_1 (V22.1.1.0) Sat Sep  6 12:52:19 2025

Using steepest-edge.
Parallel mode: deterministic, using up to 10 threads for concurrent optimization:
 * Starting dual Simplex on 1 thread...
 * Starting primal Simplex on 1 thread...

Total time on 10 threads = 0.08 sec. (235.33 ticks)

Dual simplex solved model.


Log for '/tmp/f7d61aa486ee41b2acd44dd6bcfaa045-pulp.lp' Clone_1 (V22.1.1.0) Sat Sep  6 12:52:55 2025


Log for '/tmp/f7d61aa486ee41b2acd44dd6bcfaa045-pulp.lp' Clone_1 (V22.1.1.0) Sat Sep  6 12:56:20 2025

Tried aggregator 1 time.
LP Presolve eliminated 62131 rows and 27987 columns.
Aggregator did 8 substitutions.
All rows and columns eliminated.
Presolve time = 0.05 sec. (27.37 ticks)
Parallel mode: deterministic, using up to 10 threads for concurrent optimization:
 * Starting dual Simplex on 1 thread...
 * Starting primal Simplex on 1 thread...

Log for '/tmp/f7d61aa486ee41b2acd44dd6bcfaa045-pulp.lp' Clone_1 (V22.1.1.0) Sat Sep  6 12:56:20 2025

Using steepest-edge.

Total time on 10 threads = 0.14 sec. (259.20 ticks)

Dual simplex solved model.


Log for '/tmp/358e028d114d4a118533e141ab707e0b-pulp.lp' Clone_1 (V22.1.1.0) Sat Sep  6 13:00:07 2025


Log for '/tmp/358e028d114d4a118533e141ab707e0b-pulp.lp' Clone_1 (V22.1.1.0) Sat Sep  6 13:06:18 2025

Tried aggregator 1 time.
Presolve time = 0.06 sec. (24.83 ticks)

Dual simplex solved model.


Log for '/tmp/f0173827569f4b328215d2d3765d8973-pulp.lp' Clone_1 (V22.1.1.0) Sat Sep  6 13:06:48 2025


Log for '/tmp/f0173827569f4b328215d2d3765d8973-pulp.lp' Clone_1 (V22.1.1.0) Sat Sep  6 13:06:54 2025

Tried aggregator 1 time.
LP Presolve eliminated 42052 rows and 19975 columns.
All rows and columns eliminated.
Presolve time = 0.03 sec. (18.07 ticks)
Parallel mode: deterministic, using up to 10 threads for concurrent optimization:
 * Starting dual Simplex on 1 thread...
 * Starting primal Simplex on 1 thread...

Log for '/tmp/f0173827569f4b328215d2d3765d8973-pulp.lp' Clone_1 (V22.1.1.0) Sat Sep  6 13:06:54 2025

Using steepest-edge.

Total time on 10 threads = 0.09 sec. (234.42 ticks)

Dual simplex solved model.


Log for '/tmp/d262d0059dcc42a38154a4b381068398-pulp.lp' Clone_1 (V22.1.1.0) Sat Sep  6 13:07:17 2025


Log for '/tmp/d262d0059dcc42a38154a4b381068398-pulp.lp' Clone_1 (V22.1.1.0) Sat Sep  6 13:07:22 2025

Tried aggregator 1 time.
LP Presolve eliminated 42052 rows and 19975 columns.
All rows and columns eliminated.
Presolve time = 0.03 sec. (18.07 ticks)
Parallel mode: deterministic, using up to 10 threads for concurrent optimization:
 * Starting dual Simplex on 1 thread...
 * Starting primal Simplex on 1 thread...

Log for '/tmp/d262d0059dcc42a38154a4b381068398-pulp.lp' Clone_1 (V22.1.1.0) Sat Sep  6 13:07:22 2025

Using steepest-edge.

Total time on 10 threads = 0.09 sec. (234.42 ticks)

Dual simplex solved model.


Log for '/tmp/fd857192a51c486c9136e20658852d13-pulp.lp' Clone_1 (V22.1.1.0) Sat Sep  6 13:09:03 2025


Log for '/tmp/fd857192a51c486c9136e20658852d13-pulp.lp' Clone_1 (V22.1.1.0) Sat Sep  6 13:09:21 2025

Tried aggregator 1 time.
LP Presolve eliminated 44353 rows and 21035 columns.
All rows and columns eliminated.
Presolve time = 0.03 sec. (19.01 ticks)
Parallel mode: deterministic, using up to 10 threads for concurrent optimization:
 * Starting dual Simplex on 1 thread...
 * Starting primal Simplex on 1 thread...

Log for '/tmp/fd857192a51c486c9136e20658852d13-pulp.lp' Clone_1 (V22.1.1.0) Sat Sep  6 13:09:21 2025

Using steepest-edge.

Total time on 10 threads = 0.08 sec. (236.50 ticks)

Dual simplex solved model.


Log for '/tmp/0cafafa1e16e4e7cbbf854337acfa7aa-pulp.lp' Clone_1 (V22.1.1.0) Sat Sep  6 13:09:59 2025


Log for '/tmp/0cafafa1e16e4e7cbbf854337acfa7aa-pulp.lp' Clone_1 (V22.1.1.0) Sat Sep  6 13:19:20 2025

Tried aggregator 1 time.
LP Presolve eliminated 65505 rows and 29472 columns.
All rows and columns eliminated.
Presolve time = 0.03 sec. (27.66 ticks)
Parallel mode: deterministic, using up to 10 threads for concurrent optimization:
 * Starting dual Simplex on 1 thread...
 * Starting primal Simplex on 1 thread...

Log for '/tmp/0cafafa1e16e4e7cbbf854337acfa7aa-pulp.lp' Clone_1 (V22.1.1.0) Sat Sep  6 13:19:20 2025

Using steepest-edge.

Total time on 10 threads = 0.13 sec. (257.64 ticks)

Dual simplex solved model.

